100 10
92 3
21 100
96 1
25 92
93 5
38 78
32 89
38 60
55 19
11 71
86 34
6 99
21 100
51 43
37 74
19 62
94 1
36 36
56 42
86 13
75 29
59 30
79 31
23 84
17 100
28 70
45 65
17 90
100 1
67 42
4 84
43 42
63 44
39 56
30 97
63 67
10 80
12 100
24 90
31 83
96 31
26 100
81 18
50 66
21 74
25 75
98 1
23 84
23 78
11 100
98 28
99 7
62 51
72 37
51 43
84 11
16 75
98 31
77 34
95 1
99 30
41 62
72 42
63 38
82 15
67 23
51 45
61 25
42 72
34 80
56 58
93 21
1 78
71 48
6 100
81 44
89 37
62 33
25 95
35 49
68 27
60 60
20 55
83 36
64 41
13 66
72 30
62 65
82 8
18 86
34 86
90 1
37 36
67 61
39 39
51 22
57 28
23 100
75 39
39 71
412 471
482 580
576 656
543 636
641 731
404 464
622 726
638 763
427 501
558 656
